p cnf 42 38
12 14 0
-22 -25 0
33 34 35 36 37 0
-33 -34 0
-33 -35 0
-33 -36 0
-34 -35 0
-34 -36 0
-35 -36 0
-37 0
-38 -42 0
-39 -41 0
-39 -42 0
-40 -41 0
-40 -42 0
-41 -42 0
-22 -1 0
-22 -7 0
-22 -9 0
-22 -15 0
-36 -29 0
-33 -30 0
-41 -29 0
-40 -32 0
-38 -33 0
-39 -34 0
-40 -35 0
-41 -36 0
-2 -8 0
-4 -8 0
-8 27 0
-12 30 0
-8 -10 0
-8 -13 0
-8 -9 0
-8 -14 32 0
-16 34 0
-22 40 0
